
===== New CPLEX run =====
Instance: /home/yorig/tuner/mpils-tests/instances/miplib/easy/lotsize.mps
Config: /scratch/yorig/mpils-results-grid-seconds-5-watchdog/easy/24proc/seed-5/4_lotsize_seed-5_20260504_011421/iterated_local_search/run_2_worker_2/ils_config_1988536838262293413.prm
========================

Selected objective sense:  MINIMIZE
Selected objective  name:  R1921
Selected RHS        name:  B
Selected bound      name:  BOUND
Wall watchdog: enabled factor=1 grace=1 limit=6 seconds
Version identifier: 22.1.2.0 | 2024-11-26 | 0edbb82fd
CPXPARAM_Threads                                 8
CPXPARAM_Parallel                                1
CPXPARAM_MIP_Cuts_Cliques                        -1
CPXPARAM_MIP_Cuts_Covers                         -1
CPXPARAM_MIP_Cuts_FlowCovers                     2
CPXPARAM_MIP_Cuts_Implied                        2
CPXPARAM_MIP_Limits_GomoryCand                   50
CPXPARAM_MIP_Cuts_Gomory                         2
CPXPARAM_MIP_Cuts_PathCut                        1
CPXPARAM_MIP_Cuts_MIRCut                         2
CPXPARAM_Emphasis_MIP                            2
CPXPARAM_TimeLimit                               5
CPXPARAM_MIP_Limits_CutsFactor                   2
Tried aggregator 1 time.
MIP Presolve eliminated 595 rows and 0 columns.
MIP Presolve added 1190 rows and 0 columns.
MIP Presolve modified 10 coefficients.
Reduced MIP has 2515 rows, 2985 columns, and 7755 nonzeros.
Reduced MIP has 1195 binaries, 0 generals, 0 SOSs, and 0 indicators.
Presolve time = 0.00 sec. (4.53 ticks)
Probing fixed 0 vars, tightened 5487 bounds.
Probing time = 0.01 sec. (18.38 ticks)
Tried aggregator 2 times.
Detecting symmetries...
MIP Presolve modified 1206 coefficients.
Aggregator did 10 substitutions.
Reduced MIP has 2505 rows, 2975 columns, and 7735 nonzeros.
Reduced MIP has 1195 binaries, 0 generals, 0 SOSs, and 0 indicators.
Presolve time = 0.00 sec. (6.66 ticks)
Probing fixed 0 vars, tightened 2401 bounds.
Probing time = 0.00 sec. (6.41 ticks)
Clique table members: 190.
MIP emphasis: optimality.
MIP search method: dynamic search.
Parallel mode: deterministic, using up to 8 threads.
Root relaxation solution time = 0.01 sec. (9.71 ticks)

        Nodes                                         Cuts/
   Node  Left     Objective  IInf  Best Integer    Best Bound    ItCnt     Gap

      0     0   348385.3466   472                 348385.3466      882         
      0     0   572313.5958   462                   Cuts: 726     1889         
      0     0   808857.3372   674                   Cuts: 726     2774         
*     0+    0                       1.01740e+07   808857.3372            92.05%
*     0+    0                      7973370.0000   808857.3372            89.86%
      0     0   921830.4755   669  7973370.0000     Cuts: 726     3410   88.44%
      0     0  1018384.2895   665  7973370.0000     Cuts: 726     4062   87.23%
      0     0  1090708.1418   718  7973370.0000     Cuts: 726     4717   86.32%
Detecting symmetries...
*     0+    0                      1940615.0000  1090708.1418            43.80%
      0     0  1149459.6796   728  1940615.0000     Cuts: 726     5359   40.77%
      0     0  1192167.4116   780  1940615.0000     Cuts: 726     6007   38.57%
      0     0  1223418.0448   813  1940615.0000     Cuts: 726     6632   36.96%
      0     0  1241677.7897   774  1940615.0000     Cuts: 518     7181   36.02%
      0     0  1257608.2873   808  1940615.0000     Cuts: 520     7614   35.20%
      0     0  1265761.4948   816  1940615.0000     Cuts: 415     7989   34.78%
      0     0  1272473.8961   808  1940615.0000     Cuts: 319     8327   34.43%
      0     0  1279009.9497   836  1940615.0000     Cuts: 366     8663   34.09%
      0     0  1282316.3850   841  1940615.0000     Cuts: 310     9099   33.92%
      0     0  1285530.0119   854  1940615.0000     Cuts: 277     9363   33.76%
      0     0  1288700.1008   849  1940615.0000     Cuts: 243     9581   33.59%
      0     0  1291680.7394   832  1940615.0000     Cuts: 270     9778   33.44%
      0     0  1293159.2948   856  1940615.0000     Cuts: 154     9973   33.36%
      0     0  1294441.9040   852  1940615.0000     Cuts: 145    10140   33.30%
      0     0  1295168.0812   868  1940615.0000     Cuts: 148    10239   33.26%
      0     0  1296738.4540   866  1940615.0000     Cuts: 113    10334   33.18%
      0     0  1299371.1096   837  1940615.0000      Cuts: 95    10486   33.04%
      0     0  1299776.9055   856  1940615.0000      Cuts: 85    10575   33.02%
      0     0  1300712.3034   862  1940615.0000      Cuts: 52    10674   32.97%
      0     0  1302951.0744   861  1940615.0000     Cuts: 177    10830   32.86%
      0     0  1304234.4100   863  1940615.0000     Cuts: 165    10946   32.79%
      0     0  1305274.2399   862  1940615.0000      Cuts: 93    11038   32.74%
      0     0  1306379.3297   857  1940615.0000     Cuts: 101    11141   32.68%
      0     0  1306953.2867   859  1940615.0000     Cuts: 145    11236   32.65%
      0     0  1307949.8595   862  1940615.0000      Cuts: 94    11332   32.60%
      0     0  1308817.2017   845  1940615.0000     Cuts: 136    11453   32.56%
      0     0  1309533.5183   862  1940615.0000      Cuts: 88    11549   32.52%
      0     0  1309797.3366   858  1940615.0000     Cuts: 108    11628   32.51%
*     0+    0                      1926873.0000  1309797.3366            32.02%
      0     0  1310142.8748   867  1926873.0000      Cuts: 60    11691   32.01%
*     0+    0                      1923534.0000  1310142.8748            31.89%
Detecting symmetries...
      0     2  1310142.8748   867  1923534.0000  1310142.8748    11691   31.89%
Elapsed time = 4.45 sec. (7465.39 ticks, tree = 0.02 MB, solutions = 5)
     20     4  1319236.1238   852  1923534.0000  1310307.8751    12148   31.88%
     40    34  1316910.9776   778  1923534.0000  1311444.4309    16942   31.82%
     74    64  1327977.0249   779  1923534.0000  1311810.0210    21598   31.80%

Implied bound cuts applied:  30
Flow cuts applied:  451
Mixed integer rounding cuts applied:  1071
Flow path cuts applied:  37
Multi commodity flow cuts applied:  31
Gomory fractional cuts applied:  1

Root node processing (before b&c):
  Real time             =    4.43 sec. (7457.83 ticks)
Parallel b&c, 8 threads:
  Real time             =    0.57 sec. (998.08 ticks)
  Sync time (average)   =    0.06 sec.
  Wait time (average)   =    0.00 sec.
                          ------------
Total (root+branch&cut) =    5.00 sec. (8455.91 ticks)
Gap: 31.79%
Upper bound: 1.92353e+06
Lower bound: 1.31197e+06
Termination status: Normal
End of CPLEX run. Time: 5.0051 seconds

===== New CPLEX run =====
Instance: /home/yorig/tuner/mpils-tests/instances/miplib/easy/lotsize.mps
Config: /scratch/yorig/mpils-results-grid-seconds-5-watchdog/easy/24proc/seed-5/4_lotsize_seed-5_20260504_011421/iterated_local_search/run_2_worker_2/ils_config_15107422668538485518.prm
========================

Selected objective sense:  MINIMIZE
Selected objective  name:  R1921
Selected RHS        name:  B
Selected bound      name:  BOUND
Wall watchdog: enabled factor=1 grace=1 limit=6 seconds
Version identifier: 22.1.2.0 | 2024-11-26 | 0edbb82fd
CPXPARAM_Threads                                 8
CPXPARAM_Parallel                                1
CPXPARAM_MIP_Cuts_Cliques                        -1
CPXPARAM_MIP_Cuts_Covers                         -1
CPXPARAM_MIP_Cuts_FlowCovers                     2
CPXPARAM_MIP_Cuts_Implied                        2
CPXPARAM_MIP_Limits_GomoryCand                   10
CPXPARAM_MIP_Cuts_Gomory                         2
CPXPARAM_MIP_Cuts_PathCut                        1
CPXPARAM_MIP_Cuts_MIRCut                         2
CPXPARAM_Emphasis_MIP                            2
CPXPARAM_TimeLimit                               5
CPXPARAM_MIP_Limits_CutsFactor                   2
Tried aggregator 1 time.
MIP Presolve eliminated 595 rows and 0 columns.
MIP Presolve added 1190 rows and 0 columns.
MIP Presolve modified 10 coefficients.
Reduced MIP has 2515 rows, 2985 columns, and 7755 nonzeros.
Reduced MIP has 1195 binaries, 0 generals, 0 SOSs, and 0 indicators.
Presolve time = 0.00 sec. (4.53 ticks)
Probing fixed 0 vars, tightened 5487 bounds.
Probing time = 0.01 sec. (18.38 ticks)
Tried aggregator 2 times.
Detecting symmetries...
MIP Presolve modified 1206 coefficients.
Aggregator did 10 substitutions.
Reduced MIP has 2505 rows, 2975 columns, and 7735 nonzeros.
Reduced MIP has 1195 binaries, 0 generals, 0 SOSs, and 0 indicators.
Presolve time = 0.00 sec. (6.66 ticks)
Probing fixed 0 vars, tightened 2401 bounds.
Probing time = 0.00 sec. (6.41 ticks)
Clique table members: 190.
MIP emphasis: optimality.
MIP search method: dynamic search.
Parallel mode: deterministic, using up to 8 threads.
Root relaxation solution time = 0.01 sec. (9.71 ticks)

        Nodes                                         Cuts/
   Node  Left     Objective  IInf  Best Integer    Best Bound    ItCnt     Gap

      0     0   348385.3466   472                 348385.3466      882         
      0     0   582561.7294   438                   Cuts: 726     1828         
      0     0   812457.5617   706                   Cuts: 726     2672         
      0     0   929913.5195   694                   Cuts: 726     3307         
*     0+    0                       1.01740e+07   929913.5195            90.86%
*     0+    0                      7973370.0000   929913.5195            88.34%
      0     0  1033332.4194   690  7973370.0000     Cuts: 726     3971   87.04%
      0     0  1102548.1022   703  7973370.0000     Cuts: 726     4582   86.17%
Detecting symmetries...
*     0+    0                      1949098.0000  1102548.1022            43.43%
      0     0  1155545.0654   720  1949098.0000     Cuts: 700     5223   40.71%
*     0+    0                      1940615.0000  1155545.0654            40.45%
      0     0  1207354.3363   769  1940615.0000     Cuts: 726     5941   37.78%
      0     0  1231206.5018   763  1940615.0000     Cuts: 616     6448   36.56%
      0     0  1251468.1720   765  1940615.0000     Cuts: 604     7000   35.51%
      0     0  1264337.0933   795  1940615.0000     Cuts: 419     7430   34.85%
      0     0  1271989.3652   814  1940615.0000     Cuts: 326     7767   34.45%
      0     0  1276991.2803   776  1940615.0000     Cuts: 293     8044   34.20%
      0     0  1284903.0582   794  1940615.0000     Cuts: 281     8381   33.79%
      0     0  1290462.6676   786  1940615.0000     Cuts: 281     8673   33.50%
      0     0  1294516.4703   815  1940615.0000     Cuts: 272     8917   33.29%
      0     0  1298536.3981   816  1940615.0000     Cuts: 280     9258   33.09%
      0     0  1301415.9696   826  1940615.0000     Cuts: 271     9495   32.94%
      0     0  1303260.0736   828  1940615.0000     Cuts: 237     9693   32.84%
      0     0  1305360.8045   843  1940615.0000     Cuts: 169     9890   32.73%
      0     0  1306282.0896   834  1940615.0000     Cuts: 102    10047   32.69%
      0     0  1307643.9912   851  1940615.0000     Cuts: 135    10205   32.62%
      0     0  1308921.5742   839  1940615.0000     Cuts: 109    10357   32.55%
      0     0  1309869.4069   831  1940615.0000     Cuts: 100    10474   32.50%
      0     0  1310773.9116   830  1940615.0000      Cuts: 74    10547   32.46%
      0     0  1311463.6995   832  1940615.0000     Cuts: 101    10633   32.42%
      0     0  1312222.0842   834  1940615.0000      Cuts: 67    10721   32.38%
      0     0  1313176.9874   845  1940615.0000      Cuts: 58    10792   32.33%
      0     0  1313932.2237   828  1940615.0000     Cuts: 100    10861   32.29%
      0     0  1314081.9509   840  1940615.0000      Cuts: 39    10912   32.29%
      0     0  1314467.3846   835  1940615.0000      Cuts: 30    10966   32.27%
*     0+    0                      1923777.0000  1314467.3846            31.67%
Detecting symmetries...
      0     2  1314467.3846   835  1923777.0000  1314467.3846    10966   31.67%
Elapsed time = 4.00 sec. (6660.73 ticks, tree = 0.02 MB, solutions = 5)
     27    23  1319691.5439   791  1923777.0000  1316103.1827    14237   31.59%
     93    74  1324894.2605   754  1923777.0000  1316103.1827    20568   31.59%
    138   114  1342546.3714   669  1923777.0000  1316103.1827    25573   31.59%
    202   163  1348521.8858   684  1923777.0000  1316103.1827    31156   31.59%
    237   229  1348319.9033   645  1923777.0000  1316103.1827    38347   31.59%
    318   296  1377386.3407   645  1923777.0000  1316103.1827    45057   31.59%

Implied bound cuts applied:  30
Flow cuts applied:  472
Mixed integer rounding cuts applied:  1067
Flow path cuts applied:  25
Multi commodity flow cuts applied:  38
Gomory fractional cuts applied:  0

Root node processing (before b&c):
  Real time             =    3.98 sec. (6653.25 ticks)
Parallel b&c, 8 threads:
  Real time             =    1.02 sec. (1689.93 ticks)
  Sync time (average)   =    0.13 sec.
  Wait time (average)   =    0.00 sec.
                          ------------
Total (root+branch&cut) =    5.00 sec. (8343.18 ticks)
Gap: 31.59%
Upper bound: 1.92378e+06
Lower bound: 1.3161e+06
Termination status: Normal
End of CPLEX run. Time: 5.00464 seconds

===== New CPLEX run =====
Instance: /home/yorig/tuner/mpils-tests/instances/miplib/easy/lotsize.mps
Config: /scratch/yorig/mpils-results-grid-seconds-5-watchdog/easy/24proc/seed-5/4_lotsize_seed-5_20260504_011421/iterated_local_search/run_2_worker_2/ils_config_3701245456433904483.prm
========================

Selected objective sense:  MINIMIZE
Selected objective  name:  R1921
Selected RHS        name:  B
Selected bound      name:  BOUND
Wall watchdog: enabled factor=1 grace=1 limit=6 seconds
Version identifier: 22.1.2.0 | 2024-11-26 | 0edbb82fd
CPXPARAM_Threads                                 8
CPXPARAM_Parallel                                1
CPXPARAM_MIP_Cuts_Cliques                        -1
CPXPARAM_MIP_Cuts_Covers                         -1
CPXPARAM_MIP_Cuts_FlowCovers                     2
CPXPARAM_MIP_Cuts_Implied                        2
CPXPARAM_MIP_Limits_GomoryCand                   10
CPXPARAM_MIP_Cuts_Gomory                         1
CPXPARAM_MIP_Cuts_PathCut                        1
CPXPARAM_MIP_Cuts_MIRCut                         2
CPXPARAM_Emphasis_MIP                            2
CPXPARAM_TimeLimit                               5
CPXPARAM_MIP_Limits_CutsFactor                   2
Tried aggregator 1 time.
MIP Presolve eliminated 595 rows and 0 columns.
MIP Presolve added 1190 rows and 0 columns.
MIP Presolve modified 10 coefficients.
Reduced MIP has 2515 rows, 2985 columns, and 7755 nonzeros.
Reduced MIP has 1195 binaries, 0 generals, 0 SOSs, and 0 indicators.
Presolve time = 0.00 sec. (4.53 ticks)
Probing fixed 0 vars, tightened 5487 bounds.
Probing time = 0.01 sec. (18.38 ticks)
Tried aggregator 2 times.
Detecting symmetries...
MIP Presolve modified 1206 coefficients.
Aggregator did 10 substitutions.
Reduced MIP has 2505 rows, 2975 columns, and 7735 nonzeros.
Reduced MIP has 1195 binaries, 0 generals, 0 SOSs, and 0 indicators.
Presolve time = 0.00 sec. (6.66 ticks)
Probing fixed 0 vars, tightened 2401 bounds.
Probing time = 0.00 sec. (6.41 ticks)
Clique table members: 190.
MIP emphasis: optimality.
MIP search method: dynamic search.
Parallel mode: deterministic, using up to 8 threads.
Root relaxation solution time = 0.01 sec. (9.71 ticks)

        Nodes                                         Cuts/
   Node  Left     Objective  IInf  Best Integer    Best Bound    ItCnt     Gap

      0     0   348385.3466   472                 348385.3466      882         
      0     0   582561.7294   438                   Cuts: 726     1828         
      0     0   812457.5617   706                   Cuts: 726     2672         
      0     0   929913.5195   694                   Cuts: 726     3307         
*     0+    0                       1.01740e+07   929913.5195            90.86%
*     0+    0                      7973370.0000   929913.5195            88.34%
      0     0  1033332.4194   690  7973370.0000     Cuts: 726     3971   87.04%
      0     0  1102548.1022   703  7973370.0000     Cuts: 726     4582   86.17%
Detecting symmetries...
*     0+    0                      1949098.0000  1102548.1022            43.43%
      0     0  1155545.0654   720  1949098.0000     Cuts: 700     5223   40.71%
*     0+    0                      1940615.0000  1155545.0654            40.45%
      0     0  1207354.3363   769  1940615.0000     Cuts: 726     5941   37.78%
      0     0  1231206.5018   763  1940615.0000     Cuts: 616     6448   36.56%
      0     0  1251468.1720   765  1940615.0000     Cuts: 604     7000   35.51%
      0     0  1264337.0933   795  1940615.0000     Cuts: 419     7430   34.85%
      0     0  1271989.3652   814  1940615.0000     Cuts: 326     7767   34.45%
      0     0  1276991.2803   776  1940615.0000     Cuts: 293     8044   34.20%
      0     0  1284903.0582   794  1940615.0000     Cuts: 281     8381   33.79%
      0     0  1290462.6676   786  1940615.0000     Cuts: 281     8673   33.50%
      0     0  1294516.4703   815  1940615.0000     Cuts: 272     8917   33.29%
      0     0  1298536.3981   816  1940615.0000     Cuts: 280     9258   33.09%
      0     0  1301415.9696   826  1940615.0000     Cuts: 271     9495   32.94%
      0     0  1303260.0736   828  1940615.0000     Cuts: 237     9693   32.84%
      0     0  1305360.8045   843  1940615.0000     Cuts: 169     9890   32.73%
      0     0  1306282.0896   834  1940615.0000     Cuts: 102    10047   32.69%
      0     0  1307643.9912   851  1940615.0000     Cuts: 135    10205   32.62%
      0     0  1308930.8439   841  1940615.0000     Cuts: 110    10347   32.55%
      0     0  1309873.8925   835  1940615.0000      Cuts: 94    10455   32.50%
      0     0  1310777.5229   829  1940615.0000      Cuts: 74    10524   32.46%
      0     0  1311465.8909   830  1940615.0000     Cuts: 116    10613   32.42%
      0     0  1312222.5688   832  1940615.0000      Cuts: 67    10698   32.38%
      0     0  1313150.9432   844  1940615.0000      Cuts: 53    10775   32.33%
      0     0  1313898.5649   832  1940615.0000      Cuts: 94    10857   32.29%
      0     0  1314151.1750   834  1940615.0000      Cuts: 41    10937   32.28%
      0     0  1314634.5489   845  1940615.0000      Cuts: 54    11011   32.26%
      0     0  1315821.8493   840  1940615.0000      Cuts: 53    11116   32.20%
      0     0  1316136.6570   837  1940615.0000      Cuts: 58    11191   32.18%
*     0+    0                      1923777.0000  1316136.6570            31.59%
Detecting symmetries...
      0     2  1316136.6570   837  1923777.0000  1316136.6570    11191   31.59%
Elapsed time = 4.16 sec. (6935.91 ticks, tree = 0.02 MB, solutions = 5)
     23    17  1320555.1856   796  1923777.0000  1317218.8675    13153   31.53%
     42    40  1319192.0450   780  1923777.0000  1317218.8675    16572   31.53%
     72    60  1329478.0129   765  1923777.0000  1317542.8112    19670   31.51%
    115    86  1324101.9305   769  1923777.0000  1317542.8112    25356   31.51%
    168   144  1333651.8031   709  1923777.0000  1317542.8112    32082   31.51%
    218   170  1341794.4559   690  1923777.0000  1317542.8112    35681   31.51%

Implied bound cuts applied:  28
Flow cuts applied:  505
Mixed integer rounding cuts applied:  1081
Flow path cuts applied:  24
Multi commodity flow cuts applied:  42
Gomory fractional cuts applied:  0

Root node processing (before b&c):
  Real time             =    4.15 sec. (6928.38 ticks)
Parallel b&c, 8 threads:
  Real time             =    0.85 sec. (1471.75 ticks)
  Sync time (average)   =    0.09 sec.
  Wait time (average)   =    0.00 sec.
                          ------------
Total (root+branch&cut) =    5.00 sec. (8400.13 ticks)
Gap: 31.51%
Upper bound: 1.92378e+06
Lower bound: 1.31754e+06
Termination status: Normal
End of CPLEX run. Time: 5.00449 seconds

===== New CPLEX run =====
Instance: /home/yorig/tuner/mpils-tests/instances/miplib/easy/lotsize.mps
Config: /scratch/yorig/mpils-results-grid-seconds-5-watchdog/easy/24proc/seed-5/4_lotsize_seed-5_20260504_011421/iterated_local_search/run_2_worker_2/ils_config_11128614249077760103.prm
========================

Selected objective sense:  MINIMIZE
Selected objective  name:  R1921
Selected RHS        name:  B
Selected bound      name:  BOUND
Wall watchdog: enabled factor=1 grace=1 limit=6 seconds
Version identifier: 22.1.2.0 | 2024-11-26 | 0edbb82fd
CPXPARAM_Threads                                 8
CPXPARAM_Parallel                                1
CPXPARAM_MIP_Cuts_Cliques                        -1
CPXPARAM_MIP_Cuts_Covers                         -1
CPXPARAM_MIP_Cuts_FlowCovers                     -1
CPXPARAM_MIP_Cuts_Implied                        2
CPXPARAM_MIP_Limits_GomoryCand                   10
CPXPARAM_MIP_Cuts_Gomory                         1
CPXPARAM_MIP_Cuts_PathCut                        1
CPXPARAM_MIP_Cuts_MIRCut                         2
CPXPARAM_Emphasis_MIP                            2
CPXPARAM_TimeLimit                               5
CPXPARAM_MIP_Limits_CutsFactor                   2
Tried aggregator 1 time.
MIP Presolve eliminated 595 rows and 0 columns.
MIP Presolve added 1190 rows and 0 columns.
MIP Presolve modified 10 coefficients.
Reduced MIP has 2515 rows, 2985 columns, and 7755 nonzeros.
Reduced MIP has 1195 binaries, 0 generals, 0 SOSs, and 0 indicators.
Presolve time = 0.00 sec. (4.53 ticks)
Probing fixed 0 vars, tightened 5487 bounds.
Probing time = 0.01 sec. (18.38 ticks)
Tried aggregator 2 times.
Detecting symmetries...
MIP Presolve modified 1206 coefficients.
Aggregator did 10 substitutions.
Reduced MIP has 2505 rows, 2975 columns, and 7735 nonzeros.
Reduced MIP has 1195 binaries, 0 generals, 0 SOSs, and 0 indicators.
Presolve time = 0.01 sec. (6.66 ticks)
Probing fixed 0 vars, tightened 2401 bounds.
Probing time = 0.00 sec. (6.41 ticks)
Clique table members: 190.
MIP emphasis: optimality.
MIP search method: dynamic search.
Parallel mode: deterministic, using up to 8 threads.
Root relaxation solution time = 0.01 sec. (9.71 ticks)

        Nodes                                         Cuts/
   Node  Left     Objective  IInf  Best Integer    Best Bound    ItCnt     Gap

      0     0   348385.3466   472                 348385.3466      882         
      0     0   428707.2333   563                   Cuts: 726     1565         
      0     0   599196.4108   564                   Cuts: 726     2173         
      0     0   677848.4010   635                   Cuts: 726     2675         
      0     0   814707.7101   650                   Cuts: 726     3227         
*     0+    0                       1.01740e+07   814707.7101            91.99%
*     0+    0                      7973370.0000   814707.7101            89.78%
      0     0   900981.0499   711  7973370.0000     Cuts: 726     3691   88.70%
Detecting symmetries...
      0     0   988129.2570   686  7973370.0000  MIRcuts: 612     4128   87.61%
      0     0  1031636.9160   701  7973370.0000     Cuts: 466     4524   87.06%
      0     0  1089493.3606   695  7973370.0000     Cuts: 512     5020   86.34%
*     0+    0                      1940615.0000  1089493.3606            43.86%
      0     0  1136106.5004   685  1940615.0000     Cuts: 502     5450   41.46%
      0     0  1191626.4326   727  1940615.0000     Cuts: 626     6102   38.60%
      0     0  1229600.0766   752  1940615.0000     Cuts: 644     6673   36.64%
      0     0  1267184.0040   777  1940615.0000     Cuts: 675     7316   34.70%
      0     0  1292330.7607   801  1940615.0000     Cuts: 640     7950   33.41%
      0     0  1304274.4258   806  1940615.0000     Cuts: 416     8397   32.79%
      0     0  1311446.5396   817  1940615.0000     Cuts: 320     8750   32.42%
      0     0  1318061.3384   807  1940615.0000     Cuts: 288     9050   32.08%
      0     0  1322690.5684   843  1940615.0000     Cuts: 235     9311   31.84%
      0     0  1325262.7498   820  1940615.0000     Cuts: 151     9505   31.71%
      0     0  1328717.1181   840  1940615.0000     Cuts: 151     9710   31.53%
      0     0  1330647.1629   833  1940615.0000     Cuts: 149     9900   31.43%
      0     0  1332563.6492   841  1940615.0000     Cuts: 141    10049   31.33%
      0     0  1334233.8032   815  1940615.0000     Cuts: 101    10269   31.25%
      0     0  1335833.0483   848  1940615.0000     Cuts: 156    10443   31.16%
      0     0  1336818.7468   852  1940615.0000      Cuts: 98    10595   31.11%
      0     0  1337203.1718   856  1940615.0000      Cuts: 72    10680   31.09%
      0     0  1337535.5308   854  1940615.0000      Cuts: 34    10774   31.08%
      0     0  1337698.0675   848  1940615.0000      Cuts: 40    10834   31.07%
*     0+    0                      1937822.0000  1337698.0675            30.97%
Detecting symmetries...
      0     2  1337698.0675   848  1937822.0000  1337698.0675    10834   30.97%
Elapsed time = 3.50 sec. (5732.79 ticks, tree = 0.02 MB, solutions = 4)
     10     3  1337984.3887   851  1937822.0000  1337700.1193    10961   30.97%
     27    23  1341885.2144   793  1937822.0000  1337987.2632    12772   30.95%
     89    70  1343351.4190   766  1937822.0000  1337987.2632    18364   30.95%
    129   121  1348604.1982   708  1937822.0000  1337987.2632    25181   30.95%
    167   156  1352219.8035   737  1937822.0000  1337987.2632    29900   30.95%
    219   178  1375218.0459   725  1937822.0000  1337987.2632    32439   30.95%
    279   243  1357329.3038   683  1937822.0000  1337987.2632    41341   30.95%
    348   293  1361301.4143   666  1937822.0000  1337987.2632    48133   30.95%
    425   349  1375570.7590   614  1937822.0000  1337987.2632    54467   30.95%

Implied bound cuts applied:  32
Mixed integer rounding cuts applied:  1477
Flow path cuts applied:  34
Multi commodity flow cuts applied:  34
Gomory fractional cuts applied:  0

Root node processing (before b&c):
  Real time             =    3.49 sec. (5725.85 ticks)
Parallel b&c, 8 threads:
  Real time             =    1.52 sec. (2497.56 ticks)
  Sync time (average)   =    0.17 sec.
  Wait time (average)   =    0.00 sec.
                          ------------
Total (root+branch&cut) =    5.00 sec. (8223.40 ticks)
Gap: 30.95%
Upper bound: 1.93782e+06
Lower bound: 1.33799e+06
Termination status: Normal
End of CPLEX run. Time: 5.0056 seconds

===== New CPLEX run =====
Instance: /home/yorig/tuner/mpils-tests/instances/miplib/easy/lotsize.mps
Config: /scratch/yorig/mpils-results-grid-seconds-5-watchdog/easy/24proc/seed-5/4_lotsize_seed-5_20260504_011421/iterated_local_search/run_2_worker_2/ils_config_12517707983327814345.prm
========================

Selected objective sense:  MINIMIZE
Selected objective  name:  R1921
Selected RHS        name:  B
Selected bound      name:  BOUND
Wall watchdog: enabled factor=1 grace=1 limit=6 seconds
Version identifier: 22.1.2.0 | 2024-11-26 | 0edbb82fd
CPXPARAM_Threads                                 8
CPXPARAM_Parallel                                1
CPXPARAM_MIP_Cuts_Cliques                        -1
CPXPARAM_MIP_Cuts_Covers                         -1
CPXPARAM_MIP_Cuts_FlowCovers                     -1
CPXPARAM_MIP_Cuts_Implied                        2
CPXPARAM_MIP_Limits_GomoryCand                   10
CPXPARAM_MIP_Cuts_Gomory                         1
CPXPARAM_MIP_Cuts_PathCut                        1
CPXPARAM_MIP_Cuts_MIRCut                         1
CPXPARAM_Emphasis_MIP                            2
CPXPARAM_TimeLimit                               5
CPXPARAM_MIP_Limits_CutsFactor                   2
Tried aggregator 1 time.
MIP Presolve eliminated 595 rows and 0 columns.
MIP Presolve added 1190 rows and 0 columns.
MIP Presolve modified 10 coefficients.
Reduced MIP has 2515 rows, 2985 columns, and 7755 nonzeros.
Reduced MIP has 1195 binaries, 0 generals, 0 SOSs, and 0 indicators.
Presolve time = 0.00 sec. (4.53 ticks)
Probing fixed 0 vars, tightened 5487 bounds.
Probing time = 0.01 sec. (18.38 ticks)
Tried aggregator 2 times.
Detecting symmetries...
MIP Presolve modified 1206 coefficients.
Aggregator did 10 substitutions.
Reduced MIP has 2505 rows, 2975 columns, and 7735 nonzeros.
Reduced MIP has 1195 binaries, 0 generals, 0 SOSs, and 0 indicators.
Presolve time = 0.00 sec. (6.66 ticks)
Probing fixed 0 vars, tightened 2401 bounds.
Probing time = 0.00 sec. (6.41 ticks)
Clique table members: 190.
MIP emphasis: optimality.
MIP search method: dynamic search.
Parallel mode: deterministic, using up to 8 threads.
Root relaxation solution time = 0.01 sec. (9.71 ticks)

        Nodes                                         Cuts/
   Node  Left     Objective  IInf  Best Integer    Best Bound    ItCnt     Gap

      0     0   348385.3466   472                 348385.3466      882         
      0     0   428707.2333   563                   Cuts: 726     1565         
      0     0   599196.4108   564                   Cuts: 726     2173         
      0     0   677848.4010   635                   Cuts: 726     2675         
      0     0   814707.7101   650                   Cuts: 726     3227         
*     0+    0                       1.01740e+07   814707.7101            91.99%
*     0+    0                      7973370.0000   814707.7101            89.78%
      0     0   900981.0499   711  7973370.0000     Cuts: 726     3691   88.70%
Detecting symmetries...
      0     0   988129.2570   686  7973370.0000  MIRcuts: 612     4128   87.61%
      0     0  1031636.9160   701  7973370.0000     Cuts: 466     4524   87.06%
      0     0  1089493.3606   695  7973370.0000     Cuts: 512     5020   86.34%
*     0+    0                      1940615.0000  1089493.3606            43.86%
      0     0  1136106.5004   685  1940615.0000     Cuts: 502     5450   41.46%
      0     0  1191626.4326   727  1940615.0000     Cuts: 626     6102   38.60%
      0     0  1229600.0766   752  1940615.0000     Cuts: 644     6673   36.64%
      0     0  1267184.0040   777  1940615.0000     Cuts: 675     7316   34.70%
      0     0  1292330.7607   801  1940615.0000     Cuts: 640     7950   33.41%
      0     0  1304274.4258   806  1940615.0000     Cuts: 416     8397   32.79%
      0     0  1311446.5396   817  1940615.0000     Cuts: 320     8750   32.42%
      0     0  1318061.3384   807  1940615.0000     Cuts: 288     9050   32.08%
      0     0  1322690.5684   843  1940615.0000     Cuts: 235     9311   31.84%
      0     0  1325262.7498   820  1940615.0000     Cuts: 151     9505   31.71%
      0     0  1328717.1181   840  1940615.0000     Cuts: 151     9710   31.53%
      0     0  1330647.1629   833  1940615.0000     Cuts: 149     9900   31.43%
      0     0  1332563.6492   841  1940615.0000     Cuts: 141    10049   31.33%
      0     0  1334233.8032   815  1940615.0000     Cuts: 101    10269   31.25%
      0     0  1335833.0483   848  1940615.0000     Cuts: 156    10443   31.16%
      0     0  1336818.7468   852  1940615.0000      Cuts: 98    10595   31.11%
      0     0  1337203.1718   856  1940615.0000      Cuts: 72    10680   31.09%
      0     0  1337535.5308   854  1940615.0000      Cuts: 34    10774   31.08%
      0     0  1337698.0675   848  1940615.0000      Cuts: 40    10834   31.07%
*     0+    0                      1937822.0000  1337698.0675            30.97%
Detecting symmetries...
      0     2  1337698.0675   848  1937822.0000  1337698.0675    10834   30.97%
Elapsed time = 3.49 sec. (5732.79 ticks, tree = 0.02 MB, solutions = 4)
     10     3  1337984.3887   851  1937822.0000  1337700.1193    10961   30.97%
     27    23  1341885.2144   793  1937822.0000  1337987.2632    12772   30.95%
     89    70  1343351.4190   766  1937822.0000  1337987.2632    18364   30.95%
    129   121  1348604.1982   708  1937822.0000  1337987.2632    25181   30.95%
    167   156  1352219.8035   737  1937822.0000  1337987.2632    29900   30.95%
    219   178  1375218.0459   725  1937822.0000  1337987.2632    32439   30.95%
    279   243  1357329.3038   683  1937822.0000  1337987.2632    41341   30.95%
    348   293  1361301.4143   666  1937822.0000  1337987.2632    48133   30.95%
    425   349  1375570.7590   614  1937822.0000  1337987.2632    54467   30.95%

Implied bound cuts applied:  32
Mixed integer rounding cuts applied:  1477
Flow path cuts applied:  34
Multi commodity flow cuts applied:  34
Gomory fractional cuts applied:  0

Root node processing (before b&c):
  Real time             =    3.47 sec. (5725.85 ticks)
Parallel b&c, 8 threads:
  Real time             =    1.53 sec. (2528.52 ticks)
  Sync time (average)   =    0.17 sec.
  Wait time (average)   =    0.00 sec.
                          ------------
Total (root+branch&cut) =    5.00 sec. (8254.37 ticks)
Gap: 30.95%
Upper bound: 1.93782e+06
Lower bound: 1.33799e+06
Termination status: Normal
End of CPLEX run. Time: 5.00482 seconds

===== New CPLEX run =====
Instance: /home/yorig/tuner/mpils-tests/instances/miplib/easy/lotsize.mps
Config: /scratch/yorig/mpils-results-grid-seconds-5-watchdog/easy/24proc/seed-5/4_lotsize_seed-5_20260504_011421/iterated_local_search/run_2_worker_2/ils_config_9496789150168642719.prm
========================

Selected objective sense:  MINIMIZE
Selected objective  name:  R1921
Selected RHS        name:  B
Selected bound      name:  BOUND
Wall watchdog: enabled factor=1 grace=1 limit=6 seconds
Version identifier: 22.1.2.0 | 2024-11-26 | 0edbb82fd
CPXPARAM_Threads                                 8
CPXPARAM_Parallel                                1
CPXPARAM_MIP_Cuts_Cliques                        -1
CPXPARAM_MIP_Cuts_Covers                         -1
CPXPARAM_MIP_Cuts_FlowCovers                     -1
CPXPARAM_MIP_Cuts_Implied                        2
CPXPARAM_MIP_Limits_GomoryCand                   10
CPXPARAM_MIP_Cuts_Gomory                         1
CPXPARAM_MIP_Cuts_PathCut                        1
CPXPARAM_Emphasis_MIP                            2
CPXPARAM_TimeLimit                               5
CPXPARAM_MIP_Limits_CutsFactor                   2
Tried aggregator 1 time.
MIP Presolve eliminated 595 rows and 0 columns.
MIP Presolve added 1190 rows and 0 columns.
MIP Presolve modified 10 coefficients.
Reduced MIP has 2515 rows, 2985 columns, and 7755 nonzeros.
Reduced MIP has 1195 binaries, 0 generals, 0 SOSs, and 0 indicators.
Presolve time = 0.00 sec. (4.53 ticks)
Probing fixed 0 vars, tightened 5487 bounds.
Probing time = 0.01 sec. (18.38 ticks)
Tried aggregator 2 times.
Detecting symmetries...
MIP Presolve modified 1206 coefficients.
Aggregator did 10 substitutions.
Reduced MIP has 2505 rows, 2975 columns, and 7735 nonzeros.
Reduced MIP has 1195 binaries, 0 generals, 0 SOSs, and 0 indicators.
Presolve time = 0.00 sec. (6.66 ticks)
Probing fixed 0 vars, tightened 2401 bounds.
Probing time = 0.00 sec. (6.41 ticks)
Clique table members: 190.
MIP emphasis: optimality.
MIP search method: dynamic search.
Parallel mode: deterministic, using up to 8 threads.
Root relaxation solution time = 0.01 sec. (9.71 ticks)

        Nodes                                         Cuts/
   Node  Left     Objective  IInf  Best Integer    Best Bound    ItCnt     Gap

      0     0   348385.3466   472                 348385.3466      882         
      0     0   434831.7808   552                   Cuts: 726     1571         
      0     0   606736.1112   580                   Cuts: 726     2172         
      0     0   696934.4028   642                   Cuts: 726     2666         
*     0+    0                       1.01740e+07   696934.4028            93.15%
*     0+    0                      7973370.0000   696934.4028            91.26%
      0     0   822114.0368   681  7973370.0000     Cuts: 726     3178   89.69%
      0     0   905918.3944   717  7973370.0000     Cuts: 616     3679   88.64%
Detecting symmetries...
      0     0   983020.2323   702  7973370.0000     Cuts: 576     4106   87.67%
      0     0  1040177.6827   689  7973370.0000     Cuts: 454     4517   86.95%
      0     0  1090016.0594   675  7973370.0000     Cuts: 441     4900   86.33%
*     0+    0                      1940615.0000  1090016.0594            43.83%
      0     0  1133462.1780   699  1940615.0000     Cuts: 461     5280   41.59%
      0     0  1185146.1998   722  1940615.0000     Cuts: 594     5910   38.93%
      0     0  1225220.5397   731  1940615.0000     Cuts: 634     6472   36.86%
      0     0  1260031.9844   753  1940615.0000     Cuts: 673     7113   35.07%
      0     0  1287362.0509   743  1940615.0000     Cuts: 637     7677   33.66%
      0     0  1310050.3425   740  1940615.0000     Cuts: 506     8234   32.49%
      0     0  1319080.4221   757  1940615.0000     Cuts: 380     8700   32.03%
      0     0  1325653.4245   795  1940615.0000     Cuts: 316     9096   31.69%
      0     0  1330680.8486   804  1940615.0000     Cuts: 282     9408   31.43%
      0     0  1333894.0875   803  1940615.0000     Cuts: 251     9659   31.26%
      0     0  1337173.3868   817  1940615.0000     Cuts: 189     9881   31.10%
      0     0  1338317.9399   820  1940615.0000     Cuts: 139    10010   31.04%
      0     0  1339779.6889   824  1940615.0000     Cuts: 134    10140   30.96%
      0     0  1340873.4821   827  1940615.0000     Cuts: 100    10247   30.90%
      0     0  1341861.5473   822  1940615.0000      Cuts: 64    10341   30.85%
      0     0  1342875.9938   820  1940615.0000      Cuts: 89    10435   30.80%
      0     0  1343658.1215   812  1940615.0000      Cuts: 90    10533   30.76%
      0     0  1344041.3525   797  1940615.0000      Cuts: 79    10601   30.74%
      0     0  1344454.3328   803  1940615.0000      Cuts: 28    10650   30.72%
      0     0  1344525.4386   808  1940615.0000      Cuts: 14    10684   30.72%
      0     0  1344889.5757   803  1940615.0000      Cuts: 65    10729   30.70%
Detecting symmetries...
      0     2  1344889.5757   803  1940615.0000  1344889.5757    10729   30.70%
Elapsed time = 3.50 sec. (5608.34 ticks, tree = 0.02 MB, solutions = 3)
     32    23  1348426.4167   781  1940615.0000  1347281.1665    12732   30.57%
     54    54  1362042.6528   775  1940615.0000  1348021.3786    18356   30.54%
    113    94  1368463.4748   738  1940615.0000  1348021.3786    25000   30.54%
    150   124  1380186.1493   729  1940615.0000  1348021.3786    28350   30.54%
    210   189  1380513.0797   676  1940615.0000  1348021.3786    32591   30.54%
    288   237  1378547.0359   671  1940615.0000  1348021.3786    36645   30.54%
    435   418  1390641.4381   614  1940615.0000  1348021.3786    46463   30.54%
    530   498  1396271.8514   597  1940615.0000  1348021.3786    53148   30.54%
    622   546  1433650.3633   531  1940615.0000  1348021.3786    57122   30.54%

Implied bound cuts applied:  38
Mixed integer rounding cuts applied:  1535
Flow path cuts applied:  44
Multi commodity flow cuts applied:  35
Gomory fractional cuts applied:  0

Root node processing (before b&c):
  Real time             =    3.49 sec. (5601.59 ticks)
Parallel b&c, 8 threads:
  Real time             =    1.52 sec. (2381.67 ticks)
  Sync time (average)   =    0.12 sec.
  Wait time (average)   =    0.00 sec.
                          ------------
Total (root+branch&cut) =    5.00 sec. (7983.25 ticks)
Gap: 30.54%
Upper bound: 1.94062e+06
Lower bound: 1.34802e+06
Termination status: Normal
End of CPLEX run. Time: 5.00456 seconds
